33D32945 STP File, STP Format Version 1.0

SECTION Comments
Name "cube_n11_d3_s38"
Problem "Euclidean Steiner Tree Problem"
Remark "Generated with STPGenerator. 3 dimensions."
END

SECTION Graph
Nodes 11
END

SECTION Coordinates
DDD 0 0.5982263575 0.1752538104 0.4766825421
DDD 1 0.1399146664 0.4673976025 0.8627957766
DDD 2 0.6898134000 0.1803749400 0.5748512617
DDD 3 0.1829102199 0.3235021184 0.6120159149
DDD 4 0.7084588719 0.4244470016 0.6334648415
DDD 5 0.4169194100 0.3503611406 0.4857762337
DDD 6 0.7851141266 0.5901703474 0.1827713406
DDD 7 0.9935369142 0.1363650975 0.5229908035
DDD 8 0.1450036579 0.1299871505 0.3764338714
DDD 9 0.8339692707 0.9164997460 0.3131860557
DDD 10 0.2948672400 0.5147261031 0.4884398666
END
